(set-option :print-success false)
(set-logic QF_UF)
(declare-sort x143 0)
(declare-sort x96 0)
(declare-fun x2 () x96)
(declare-fun x141 () x96)
(declare-fun x30 (x96 x96) x96)
(declare-fun x32 () x96)
(declare-fun x116 () x96)
(declare-fun x81 () x96)
(assert (not (and (= (x30 x81 x81) x2) (and (and (= (x30 x81 x141) x32) (= x141 (x30 x81 x116))) (= x116 (x30 x81 x2))))))
(assert (not (and (= x32 (x30 x116 x116)) (and (and (= x141 (x30 x116 x81)) (= x81 (x30 x116 x2))) (= x2 (x30 x116 x32))))))
(assert (not (and (and (and (= (x30 x141 x2) x81) (= x2 (x30 x141 x32))) (= (x30 x141 x116) x32)) (= (x30 x141 x141) x116))))
(assert (not (and (and (and (= (x30 x32 x2) x141) (= (x30 x32 x141) x81)) (= x2 (x30 x32 x116))) (= x116 (x30 x32 x32)))))
(assert (not (and (= (x30 x81 x81) x32) (and (and (= (x30 x81 x2) x141) (= (x30 x81 x141) x116)) (= x2 (x30 x81 x32))))))
(assert (not (and (= x116 (x30 x2 x2)) (and (and (= x32 (x30 x2 x81)) (= (x30 x2 x141) x81)) (= x141 (x30 x2 x116))))))
(assert (not (and (and (and (= (x30 x116 x141) x32) (= (x30 x116 x81) x141)) (= x81 (x30 x116 x2))) (= x2 (x30 x116 x116)))))
(assert (not (and (and (= x141 (x30 x32 x2)) (and (= (x30 x32 x116) x81) (= (x30 x32 x141) x116))) (= x2 (x30 x32 x32)))))
(assert (not (and (= (x30 x81 x81) x116) (and (= (x30 x81 x116) x2) (and (= (x30 x81 x2) x32) (= (x30 x81 x32) x141))))))
(assert (not (and (and (= x116 (x30 x2 x32)) (and (= x81 (x30 x2 x116)) (= x141 (x30 x2 x81)))) (= (x30 x2 x2) x32))))
(assert (not (and (= x2 (x30 x32 x32)) (and (and (= (x30 x32 x116) x141) (= (x30 x32 x81) x116)) (= (x30 x32 x2) x81)))))
(assert (not (and (and (and (= (x30 x116 x81) x141) (= x2 (x30 x116 x141))) (= x81 (x30 x116 x32))) (= (x30 x116 x116) x32))))
(assert (not (and (= (x30 x141 x141) x2) (and (= (x30 x141 x2) x32) (and (= (x30 x141 x81) x116) (= x81 (x30 x141 x32)))))))
(assert (not (and (= x116 (x30 x141 x141)) (and (= (x30 x141 x116) x2) (and (= (x30 x141 x2) x81) (= x32 (x30 x141 x81)))))))
(assert (not (and (and (= (x30 x2 x81) x141) (and (= x32 (x30 x2 x116)) (= (x30 x2 x141) x116))) (= (x30 x2 x2) x81))))
(assert (not (and (= x81 (x30 x32 x32)) (and (and (= x116 (x30 x32 x2)) (= x141 (x30 x32 x116))) (= x2 (x30 x32 x81))))))
(assert (not (and (and (= x141 (x30 x81 x2)) (and (= (x30 x81 x116) x32) (= (x30 x81 x141) x116))) (= (x30 x81 x81) x2))))
(assert (not (and (and (= x2 (x30 x81 x116)) (and (= x32 (x30 x81 x141)) (= (x30 x81 x2) x141))) (= x116 (x30 x81 x81)))))
(assert (not (and (= (x30 x32 x32) x81) (and (and (= x2 (x30 x32 x141)) (= x116 (x30 x32 x2))) (= (x30 x32 x81) x141)))))
(assert (not (and (and (and (= (x30 x141 x2) x32) (= (x30 x141 x32) x116)) (= x2 (x30 x141 x81))) (= (x30 x141 x141) x81))))
(assert (not (and (and (= x81 (x30 x2 x141)) (and (= (x30 x2 x32) x116) (= x32 (x30 x2 x81)))) (= (x30 x2 x2) x141))))
(assert (not (and (= x81 (x30 x2 x2)) (and (and (= x116 (x30 x2 x141)) (= x141 (x30 x2 x32))) (= (x30 x2 x81) x32)))))
(assert (not (and (and (= (x30 x141 x2) x32) (and (= x81 (x30 x141 x116)) (= x116 (x30 x141 x32)))) (= (x30 x141 x141) x2))))
(assert (not (and (= (x30 x116 x116) x141) (and (= (x30 x116 x141) x2) (and (= x32 (x30 x116 x81)) (= (x30 x116 x2) x81))))))
(assert (let ((x155 (x30 x141 x141)) (x57 (x30 x2 x116)) (x71 (x30 x116 x116)) (x39 (x30 x81 x81)) (x52 (x30 x2 x32)) (x22 (x30 x32 x2)) (x58 (x30 x32 x32)) (x24 (x30 x32 x141)) (x126 (x30 x116 x2)) (x158 (x30 x116 x141)) (x12 (x30 x2 x2)) (x13 (x30 x141 x81)) (x124 (x30 x116 x32)) (x89 (x30 x2 x81)) (x117 (x30 x2 x141)) (x118 (x30 x81 x32)) (x86 (x30 x81 x2)) (x154 (x30 x141 x2)) (x131 (x30 x141 x32)) (x25 (x30 x32 x116)) (x94 (x30 x32 x81)) (x9 (x30 x81 x141)) (x156 (x30 x116 x81)) (x101 (x30 x81 x116)) (x148 (x30 x141 x116))) (and (and (and (or (or (or (not (= x71 x71)) (or (not (= x148 x158)) (not (= x124 x25)))) (not (= x126 x57))) (not (= x101 x156))) (and (or (not (= x9 x13)) (or (not (= x154 x117)) (or (or (not (= x155 x155)) (not (= x24 x131))) (not (= x148 x158))))) (or (or (not (= x22 x52)) (or (or (not (= x58 x58)) (not (= x24 x131))) (not (= x25 x124)))) (not (= x118 x94))))) (or (or (or (or (not (= x154 x117)) (not (= x52 x22))) (not (= x57 x126))) (not (= x12 x12))) (not (= x86 x89)))) (or (not (= x39 x39)) (or (or (not (= x101 x156)) (or (not (= x94 x118)) (not (= x9 x13)))) (not (= x86 x89)))))))
(assert (not (and (= (x30 x141 x141) x32) (and (and (= (x30 x141 x81) x116) (= (x30 x141 x116) x2)) (= x81 (x30 x141 x32))))))
(assert (not (and (= x116 (x30 x81 x81)) (and (= x141 (x30 x81 x116)) (and (= x32 (x30 x81 x2)) (= x2 (x30 x81 x141)))))))
(assert (or (or (= (x30 (x30 x2 x2) x2) x2) (or (or (= x141 (x30 (x30 x141 x141) x141)) (= x32 (x30 (x30 x32 x32) x32))) (= (x30 (x30 x116 x116) x116) x116))) (= (x30 (x30 x81 x81) x81) x81)))
(assert (not (and (= (x30 x32 x32) x116) (and (and (= (x30 x32 x2) x141) (= x2 (x30 x32 x81))) (= (x30 x32 x116) x81)))))
(assert (not (and (and (= (x30 x2 x81) x116) (and (= x141 (x30 x2 x116)) (= (x30 x2 x141) x32))) (= (x30 x2 x2) x81))))
(assert (not (and (and (= x32 (x30 x2 x141)) (and (= (x30 x2 x32) x81) (= (x30 x2 x81) x116))) (= x141 (x30 x2 x2)))))
(assert (let ((x58 (x30 x2 x2)) (x158 (x30 x81 x81)) (x131 (x30 x116 x116)) (x24 (x30 x32 x32)) (x155 (x30 x141 x141))) (or (and (not (= x81 x158)) (and (not (= x58 x81)) (and (and (not (= x155 x81)) (not (= x81 x24))) (not (= x81 x131))))) (or (or (and (not (= x116 x158)) (and (and (and (not (= x116 x155)) (not (= x24 x116))) (not (= x116 x131))) (not (= x116 x58)))) (or (and (not (= x158 x32)) (and (and (not (= x131 x32)) (and (not (= x24 x32)) (not (= x32 x155)))) (not (= x58 x32)))) (and (and (and (not (= x141 x131)) (and (not (= x141 x155)) (not (= x24 x141)))) (not (= x58 x141))) (not (= x141 x158))))) (and (not (= x2 x158)) (and (not (= x58 x2)) (and (not (= x2 x131)) (and (not (= x155 x2)) (not (= x2 x24))))))))))
(assert (not (and (and (= x32 (x30 x81 x141)) (and (= x116 (x30 x81 x32)) (= x2 (x30 x81 x116)))) (= (x30 x81 x81) x141))))
(assert (not (and (= x116 (x30 x141 x141)) (and (= (x30 x141 x116) x81) (and (= (x30 x141 x2) x32) (= x2 (x30 x141 x81)))))))
(assert (not (and (and (= x81 (x30 x116 x2)) (and (= x141 (x30 x116 x32)) (= (x30 x116 x81) x32))) (= (x30 x116 x116) x2))))
(assert (not (and (and (= (x30 x2 x116) x81) (and (= x141 (x30 x2 x81)) (= x32 (x30 x2 x141)))) (= x116 (x30 x2 x2)))))
(assert (not (and (and (= (x30 x141 x116) x2) (and (= (x30 x141 x2) x32) (= x81 (x30 x141 x32)))) (= x116 (x30 x141 x141)))))
(assert (not (and (= x2 (x30 x81 x81)) (and (and (= x32 (x30 x81 x141)) (= (x30 x81 x32) x116)) (= (x30 x81 x2) x141)))))
(assert (not (and (and (= x32 (x30 x2 x116)) (and (= x81 (x30 x2 x32)) (= x141 (x30 x2 x81)))) (= (x30 x2 x2) x116))))
(assert (not (and (= (x30 x81 x81) x116) (and (and (= (x30 x81 x141) x32) (= (x30 x81 x32) x2)) (= x141 (x30 x81 x116))))))
(assert (not (and (and (and (= (x30 x81 x141) x2) (= (x30 x81 x2) x116)) (= x141 (x30 x81 x32))) (= x32 (x30 x81 x81)))))
(assert (not (and (= x141 (x30 x32 x32)) (and (= (x30 x32 x141) x116) (and (= x2 (x30 x32 x116)) (= (x30 x32 x2) x81))))))
(assert (not (and (and (= (x30 x2 x32) x81) (and (= x141 (x30 x2 x81)) (= (x30 x2 x141) x116))) (= x32 (x30 x2 x2)))))
(assert (let ((x52 (x30 x116 x32)) (x13 (x30 x2 x116)) (x25 (x30 x32 x116)) (x9 (x30 x2 x32)) (x94 (x30 x2 x81)) (x158 (x30 x141 x81)) (x117 (x30 x32 x81)) (x22 (x30 x116 x116)) (x101 (x30 x81 x141)) (x154 (x30 x116 x141)) (x58 (x30 x141 x2)) (x57 (x30 x116 x2)) (x118 (x30 x2 x2)) (x156 (x30 x81 x32)) (x12 (x30 x2 x141)) (x89 (x30 x81 x2)) (x126 (x30 x116 x81)) (x155 (x30 x141 x141)) (x148 (x30 x32 x141)) (x71 (x30 x32 x2)) (x86 (x30 x81 x116)) (x131 (x30 x141 x116)) (x124 (x30 x32 x32)) (x24 (x30 x141 x32)) (x39 (x30 x81 x81))) (and (and (and (and (and (and (and (and (or (or (or (= x155 x116) (or (= x155 x32) (= x155 x141))) (= x2 x155)) (= x155 x81)) (or (= x24 x81) (or (= x2 x24) (or (= x24 x116) (or (= x24 x141) (= x32 x24)))))) (or (or (or (= x131 x116) (or (= x131 x32) (= x141 x131))) (= x2 x131)) (= x81 x131))) (or (or (or (= x116 x58) (or (= x58 x141) (= x58 x32))) (= x58 x2)) (= x58 x81))) (or (= x158 x81) (or (or (= x116 x158) (or (= x32 x158) (= x141 x158))) (= x158 x2)))) (and (or (= x117 x81) (or (= x2 x117) (or (or (= x117 x32) (= x117 x141)) (= x116 x117)))) (and (and (or (or (= x2 x25) (or (= x116 x25) (or (= x25 x32) (= x141 x25)))) (= x81 x25)) (and (or (= x81 x124) (or (= x2 x124) (or (= x116 x124) (or (= x124 x141) (= x124 x32))))) (or (= x148 x81) (or (= x148 x2) (or (= x148 x116) (or (= x148 x141) (= x32 x148))))))) (or (or (= x2 x71) (or (= x116 x71) (or (= x32 x71) (= x141 x71)))) (= x71 x81))))) (and (or (or (or (= x116 x126) (or (= x141 x126) (= x126 x32))) (= x126 x2)) (= x81 x126)) (and (or (= x57 x81) (or (= x2 x57) (or (= x57 x116) (or (= x32 x57) (= x141 x57))))) (and (or (or (= x2 x22) (or (or (= x22 x32) (= x141 x22)) (= x22 x116))) (= x22 x81)) (and (or (or (or (or (= x52 x32) (= x52 x141)) (= x116 x52)) (= x52 x2)) (= x81 x52)) (or (= x81 x154) (or (or (= x154 x116) (or (= x32 x154) (= x154 x141))) (= x2 x154)))))))) (and (and (and (and (or (or (= x2 x9) (or (= x116 x9) (or (= x9 x141) (= x32 x9)))) (= x9 x81)) (or (or (= x2 x12) (or (= x12 x116) (or (= x12 x141) (= x12 x32)))) (= x81 x12))) (or (= x13 x81) (or (= x13 x2) (or (or (= x13 x32) (= x141 x13)) (= x116 x13))))) (or (= x118 x81) (or (or (or (= x118 x32) (= x118 x141)) (= x116 x118)) (= x118 x2)))) (or (= x94 x81) (or (or (= x116 x94) (or (= x94 x141) (= x32 x94))) (= x2 x94))))) (and (and (and (or (or (or (= x116 x86) (or (= x32 x86) (= x141 x86))) (= x2 x86)) (= x81 x86)) (and (or (or (= x2 x101) (or (= x101 x116) (or (= x101 x141) (= x101 x32)))) (= x81 x101)) (or (or (= x2 x156) (or (or (= x156 x141) (= x32 x156)) (= x116 x156))) (= x81 x156)))) (or (= x89 x81) (or (= x2 x89) (or (= x89 x116) (or (= x32 x89) (= x141 x89)))))) (or (= x39 x81) (or (or (or (= x32 x39) (= x39 x141)) (= x39 x116)) (= x2 x39)))))))
(assert (not (and (= (x30 x2 x2) x32) (and (= (x30 x2 x32) x116) (and (= (x30 x2 x141) x81) (= x141 (x30 x2 x116)))))))
(assert (not (and (= (x30 x32 x32) x2) (and (and (= x116 (x30 x32 x141)) (= (x30 x32 x81) x141)) (= (x30 x32 x2) x81)))))
(assert (not (and (= x32 (x30 x81 x81)) (and (and (= (x30 x81 x116) x2) (= x116 (x30 x81 x141))) (= (x30 x81 x32) x141)))))
(assert (not (and (= x116 (x30 x32 x32)) (and (and (= x81 (x30 x32 x2)) (= x2 (x30 x32 x141))) (= (x30 x32 x116) x141)))))
(assert (not (and (= x2 (x30 x141 x141)) (and (= x81 (x30 x141 x2)) (and (= (x30 x141 x81) x116) (= (x30 x141 x116) x32))))))
(assert (not (and (and (= (x30 x2 x116) x141) (and (= (x30 x2 x141) x32) (= x81 (x30 x2 x32)))) (= x116 (x30 x2 x2)))))
(assert (not (and (= x141 (x30 x116 x116)) (and (= (x30 x116 x141) x81) (and (= x32 (x30 x116 x81)) (= x2 (x30 x116 x32)))))))
(assert (not (and (= x81 (x30 x116 x116)) (and (= (x30 x116 x81) x2) (and (= x32 (x30 x116 x141)) (= x141 (x30 x116 x2)))))))
(assert (not (and (= (x30 x141 x141) x81) (and (and (= (x30 x141 x116) x2) (= x116 (x30 x141 x32))) (= (x30 x141 x81) x32)))))
(assert (not (and (and (= (x30 x2 x141) x116) (and (= (x30 x2 x116) x81) (= x32 (x30 x2 x81)))) (= x141 (x30 x2 x2)))))
(assert (not (and (= x81 (x30 x116 x116)) (and (= x141 (x30 x116 x81)) (and (= (x30 x116 x141) x32) (= (x30 x116 x32) x2))))))
(assert (not (and (and (= (x30 x32 x81) x141) (and (= x116 (x30 x32 x141)) (= (x30 x32 x116) x2))) (= x81 (x30 x32 x32)))))
(assert (or (and (and (and (not (= x116 (x30 x81 x116))) (and (not (= (x30 x81 x141) x141)) (not (= x32 (x30 x81 x32))))) (not (= x2 (x30 x81 x2)))) (not (= (x30 x81 x81) x81))) (or (and (not (= (x30 x2 x81) x81)) (and (and (not (= (x30 x2 x116) x116)) (and (not (= x141 (x30 x2 x141))) (not (= x32 (x30 x2 x32))))) (not (= x2 (x30 x2 x2))))) (or (and (not (= (x30 x116 x81) x81)) (and (and (not (= (x30 x116 x116) x116)) (and (not (= x141 (x30 x116 x141))) (not (= x32 (x30 x116 x32))))) (not (= x2 (x30 x116 x2))))) (or (and (not (= (x30 x32 x81) x81)) (and (and (and (not (= (x30 x32 x32) x32)) (not (= x141 (x30 x32 x141)))) (not (= x116 (x30 x32 x116)))) (not (= x2 (x30 x32 x2))))) (and (not (= (x30 x141 x81) x81)) (and (not (= (x30 x141 x2) x2)) (and (and (not (= (x30 x141 x141) x141)) (not (= x32 (x30 x141 x32)))) (not (= (x30 x141 x116) x116))))))))))
(assert (not (and (= x2 (x30 x116 x116)) (and (= (x30 x116 x2) x141) (and (= x81 (x30 x116 x141)) (= (x30 x116 x81) x32))))))
(assert (not (and (and (and (= x116 (x30 x81 x2)) (= (x30 x81 x116) x141)) (= x2 (x30 x81 x32))) (= x32 (x30 x81 x81)))))
(assert (not (and (= (x30 x81 x81) x32) (and (= x116 (x30 x81 x32)) (and (= x2 (x30 x81 x116)) (= x141 (x30 x81 x2)))))))
(assert (not (and (= x2 (x30 x116 x116)) (and (= x32 (x30 x116 x2)) (and (= x81 (x30 x116 x32)) (= x141 (x30 x116 x81)))))))
(assert (not (and (and (and (= x141 (x30 x2 x32)) (= (x30 x2 x81) x32)) (= (x30 x2 x116) x81)) (= (x30 x2 x2) x116))))
(assert (not (and (and (and (= x2 (x30 x116 x81)) (= (x30 x116 x32) x81)) (= x32 (x30 x116 x141))) (= x141 (x30 x116 x116)))))
(assert (not (and (= (x30 x116 x116) x32) (and (= x141 (x30 x116 x32)) (and (= (x30 x116 x2) x81) (= (x30 x116 x141) x2))))))
(assert (let ((x90 (x30 x81 x141)) (x34 (x30 x32 x141)) (x128 (x30 x81 x116)) (x21 (x30 x116 x81)) (x76 (x30 x116 x116)) (x68 (x30 x141 x2)) (x40 (x30 x116 x32)) (x150 (x30 x141 x141)) (x1 (x30 x141 x116)) (x123 (x30 x32 x2)) (x92 (x30 x2 x2)) (x64 (x30 x32 x81)) (x49 (x30 x116 x141)) (x99 (x30 x32 x116)) (x8 (x30 x141 x81)) (x44 (x30 x141 x32)) (x114 (x30 x2 x141)) (x107 (x30 x81 x2)) (x75 (x30 x116 x2)) (x17 (x30 x2 x32)) (x121 (x30 x32 x32)) (x65 (x30 x81 x32)) (x19 (x30 x2 x81)) (x7 (x30 x2 x116)) (x103 (x30 x81 x81))) (let ((x18 (= x121 x116)) (x122 (= x150 x81)) (x118 (= x65 x141)) (x113 (= x116 x40)) (x27 (= x7 x81)) (x151 (= x17 x81)) (x45 (= x44 x81)) (x82 (= x81 x90)) (x66 (= x116 x8)) (x78 (= x1 x116)) (x48 (= x44 x116)) (x133 (= x32 x103)) (x63 (= x76 x32)) (x91 (= x121 x32)) (x110 (= x92 x116)) (x70 (= x2 x76)) (x124 (= x40 x141)) (x83 (= x99 x81)) (x129 (= x114 x2)) (x105 (= x81 x1)) (x135 (= x64 x81)) (x74 (= x32 x17)) (x26 (= x2 x21)) (x69 (= x17 x116)) (x144 (= x81 x103)) (x84 (= x2 x75)) (x31 (= x92 x81)) (x71 (= x141 x76)) (x47 (= x65 x116)) (x153 (= x65 x81)) (x102 (= x107 x2)) (x35 (= x116 x90)) (x117 (= x114 x141)) (x6 (= x34 x116)) (x97 (= x32 x90)) (x79 (= x75 x32)) (x37 (= x2 x64)) (x86 (= x107 x141)) (x140 (= x2 x90)) (x73 (= x128 x116)) (x127 (= x81 x34)) (x11 (= x81 x76)) (x42 (= x116 x7)) (x85 (= x116 x103)) (x136 (= x114 x81)) (x24 (= x34 x141)) (x111 (= x32 x68)) (x3 (= x19 x81)) (x16 (= x8 x81)) (x59 (= x123 x32)) (x28 (= x116 x76)) (x109 (= x99 x116)) (x132 (= x32 x49)) (x15 (= x68 x2)) (x46 (= x32 x21)) (x13 (= x8 x141)) (x72 (= x32 x7)) (x23 (= x116 x19)) (x55 (= x2 x1)) (x36 (= x116 x150)) (x106 (= x116 x64)) (x142 (= x32 x40)) (x4 (= x123 x2)) (x158 (= x141 x49)) (x148 (= x141 x1)) (x52 (= x17 x141)) (x120 (= x2 x99)) (x157 (= x107 x81)) (x9 (= x141 x90)) (x43 (= x2 x92)) (x54 (= x19 x32)) (x61 (= x81 x128)) (x115 (= x68 x81)) (x22 (= x123 x141)) (x95 (= x32 x8)) (x67 (= x123 x116)) (x10 (= x1 x32)) (x88 (= x2 x128)) (x137 (= x75 x116)) (x139 (= x128 x32)) (x131 (= x44 x141)) (x93 (= x99 x32)) (x156 (= x141 x21)) (x94 (= x64 x141)) (x38 (= x32 x64)) (x58 (= x121 x141)) (x100 (= x21 x116)) (x39 (= x141 x103)) (x155 (= x150 x141)) (x29 (= x49 x81)) (x53 (= x2 x44)) (x50 (= x121 x2)) (x119 (= x2 x8)) (x20 (= x19 x2)) (x138 (= x2 x34)) (x25 (= x141 x99)) (x149 (= x32 x34)) (x80 (= x107 x32)) (x104 (= x81 x123)) (x147 (= x49 x116)) (x146 (= x150 x32)) (x145 (= x81 x121)) (x89 (= x141 x19)) (x87 (= x81 x21)) (x126 (= x141 x75)) (x134 (= x92 x32)) (x101 (= x141 x128)) (x130 (= x2 x7)) (x62 (= x32 x44)) (x108 (= x114 x116)) (x112 (= x81 x75)) (x60 (= x2 x103)) (x152 (= x150 x2)) (x125 (= x2 x40)) (x41 (= x40 x81)) (x154 (= x68 x141)) (x12 (= x141 x92)) (x51 (= x116 x68)) (x57 (= x7 x141)) (x33 (= x32 x65)) (x5 (= x49 x2)) (x98 (= x32 x114)) (x56 (= x116 x107)) (x77 (= x17 x2)) (x14 (= x65 x2))) (and (and (or (or (and x60 x60) (or (or (or (and x14 x37) (and x140 x119)) (and x88 x26)) (and x102 x20))) (or (or (or (or (or (or (and x120 x125) (or (and x53 x138) (and x50 x50))) (and x77 x4)) (and x37 x14)) (or (or (or (or (and x152 x152) (and x138 x53)) (and x55 x5)) (and x129 x15)) (and x140 x119))) (or (or (or (and x70 x70) (or (and x55 x5) (and x120 x125))) (and x84 x130)) (and x88 x26))) (or (and x102 x20) (or (and x43 x43) (or (or (and x4 x77) (and x129 x15)) (and x130 x84)))))) (and (and (or (or (or (or (or (or (and x98 x111) (and x74 x59)) (and x72 x79)) (and x134 x134)) (and x80 x54)) (or (or (or (or (or (and x93 x142) (or (and x91 x91) (and x62 x149))) (and x74 x59)) (and x38 x33)) (or (or (or (or (and x149 x62) (and x146 x146)) (and x132 x10)) (and x111 x98)) (and x97 x95))) (or (or (and x72 x79) (or (or (and x132 x10) (and x93 x142)) (and x63 x63))) (and x46 x139)))) (or (and x133 x133) (or (and x80 x54) (or (or (and x33 x38) (and x97 x95)) (and x46 x139))))) (or (or (and x39 x39) (or (and x86 x89) (or (or (and x13 x9) (and x94 x118)) (and x156 x101)))) (or (or (and x86 x89) (or (and x12 x12) (or (and x57 x126) (or (and x52 x22) (and x154 x117))))) (or (or (or (and x13 x9) (or (or (and x148 x158) (or (and x24 x131) (and x155 x155))) (and x117 x154))) (or (and x94 x118) (or (and x22 x52) (or (or (and x24 x131) (and x58 x58)) (and x124 x25))))) (or (or (or (and x71 x71) (or (and x148 x158) (and x124 x25))) (and x126 x57)) (and x156 x101)))))) (or (or (or (and x56 x23) (or (and x110 x110) (or (or (and x69 x67) (and x51 x108)) (and x42 x137)))) (or (or (or (or (or (or (and x48 x6) (and x36 x36)) (and x78 x147)) (and x51 x108)) (and x35 x66)) (or (and x106 x47) (or (and x67 x69) (or (and x109 x113) (or (and x18 x18) (and x48 x6)))))) (or (and x100 x73) (or (or (or (and x109 x113) (and x147 x78)) (and x28 x28)) (and x137 x42))))) (or (and x85 x85) (or (or (or (and x66 x35) (and x47 x106)) (and x100 x73)) (and x56 x23)))))) (or (or (or (or (or (or (or (or (and x127 x45) (and x145 x145)) (and x41 x83)) (and x104 x151)) (and x153 x135)) (or (and x16 x82) (or (and x136 x115) (or (or (and x127 x45) (and x122 x122)) (and x105 x29))))) (or (and x61 x87) (or (and x112 x27) (or (or (and x105 x29) (and x41 x83)) (and x11 x11))))) (or (or (or (and x112 x27) (or (and x115 x136) (and x151 x104))) (and x31 x31)) (and x157 x3))) (or (and x144 x144) (or (and x157 x3) (or (or (and x82 x16) (and x135 x153)) (and x87 x61)))))))))
(assert (not (and (and (= (x30 x2 x32) x141) (and (= (x30 x2 x141) x81) (= x116 (x30 x2 x81)))) (= (x30 x2 x2) x32))))
(assert (not (and (= (x30 x141 x141) x32) (and (and (= x2 (x30 x141 x81)) (= (x30 x141 x116) x81)) (= (x30 x141 x32) x116)))))
(assert (not (and (= x141 (x30 x32 x32)) (and (and (= (x30 x32 x81) x116) (= (x30 x32 x116) x2)) (= (x30 x32 x141) x81)))))
(assert (not (and (= (x30 x141 x141) x32) (and (and (= x81 (x30 x141 x116)) (= (x30 x141 x2) x116)) (= x2 (x30 x141 x32))))))
(assert (not (and (= x2 (x30 x141 x141)) (and (and (= (x30 x141 x32) x116) (= x32 (x30 x141 x81))) (= x81 (x30 x141 x2))))))
(assert (not (and (= x81 (x30 x116 x116)) (and (and (= x141 (x30 x116 x2)) (= (x30 x116 x32) x2)) (= x32 (x30 x116 x81))))))
(assert (and (and (not (= x116 x81)) (and (not (= x2 x116)) (and (and (and (not (= x32 x116)) (and (and (not (= x141 x2)) (and (not (= x141 x32)) (not (= x116 x141)))) (not (= x141 x81)))) (not (= x2 x32))) (not (= x32 x81))))) (not (= x81 x2))))
(assert (not (and (and (and (= (x30 x141 x116) x81) (= (x30 x141 x81) x32)) (= x116 (x30 x141 x2))) (= (x30 x141 x141) x2))))
(assert (not (and (and (= (x30 x141 x2) x116) (and (= (x30 x141 x32) x81) (= x32 (x30 x141 x116)))) (= (x30 x141 x141) x2))))
(assert (not (and (and (= (x30 x141 x81) x116) (and (= (x30 x141 x2) x32) (= x2 (x30 x141 x116)))) (= x81 (x30 x141 x141)))))
(assert (not (and (and (= x2 (x30 x32 x116)) (and (= (x30 x32 x2) x81) (= (x30 x32 x81) x141))) (= x116 (x30 x32 x32)))))
(assert (not (and (= x32 (x30 x81 x81)) (and (= (x30 x81 x32) x116) (and (= (x30 x81 x141) x2) (= x141 (x30 x81 x116)))))))
(assert (or (or (or (or (and (not (= x81 (x30 x141 (x30 x141 x81)))) (and (and (and (not (= (x30 x141 (x30 x141 x141)) x141)) (not (= x32 (x30 x141 (x30 x141 x32))))) (not (= x116 (x30 x141 (x30 x141 x116))))) (not (= x2 (x30 x141 (x30 x141 x2)))))) (and (and (and (and (not (= (x30 x32 (x30 x32 x32)) x32)) (not (= (x30 x32 (x30 x32 x141)) x141))) (not (= (x30 x32 (x30 x32 x116)) x116))) (not (= (x30 x32 (x30 x32 x2)) x2))) (not (= x81 (x30 x32 (x30 x32 x81)))))) (and (and (not (= x2 (x30 x116 (x30 x116 x2)))) (and (not (= x116 (x30 x116 (x30 x116 x116)))) (and (not (= x141 (x30 x116 (x30 x116 x141)))) (not (= x32 (x30 x116 (x30 x116 x32))))))) (not (= x81 (x30 x116 (x30 x116 x81)))))) (and (and (not (= (x30 x2 (x30 x2 x2)) x2)) (and (not (= x116 (x30 x2 (x30 x2 x116)))) (and (not (= x141 (x30 x2 (x30 x2 x141)))) (not (= (x30 x2 (x30 x2 x32)) x32))))) (not (= (x30 x2 (x30 x2 x81)) x81)))) (and (not (= x81 (x30 x81 (x30 x81 x81)))) (and (and (and (not (= (x30 x81 (x30 x81 x32)) x32)) (not (= x141 (x30 x81 (x30 x81 x141))))) (not (= (x30 x81 (x30 x81 x116)) x116))) (not (= (x30 x81 (x30 x81 x2)) x2))))))
(assert (or (and (not (= (x30 (x30 x81 x81) x81) x81)) (and (not (= x2 (x30 (x30 x81 x2) x81))) (and (not (= (x30 (x30 x81 x116) x81) x116)) (and (not (= x141 (x30 (x30 x81 x141) x81))) (not (= x32 (x30 (x30 x81 x32) x81))))))) (or (or (or (and (not (= x81 (x30 (x30 x141 x81) x141))) (and (and (and (not (= (x30 (x30 x141 x141) x141) x141)) (not (= (x30 (x30 x141 x32) x141) x32))) (not (= x116 (x30 (x30 x141 x116) x141)))) (not (= (x30 (x30 x141 x2) x141) x2)))) (and (and (and (not (= x116 (x30 (x30 x32 x116) x32))) (and (not (= x32 (x30 (x30 x32 x32) x32))) (not (= (x30 (x30 x32 x141) x32) x141)))) (not (= x2 (x30 (x30 x32 x2) x32)))) (not (= x81 (x30 (x30 x32 x81) x32))))) (and (not (= (x30 (x30 x116 x81) x116) x81)) (and (and (and (not (= (x30 (x30 x116 x141) x116) x141)) (not (= x32 (x30 (x30 x116 x32) x116)))) (not (= x116 (x30 (x30 x116 x116) x116)))) (not (= x2 (x30 (x30 x116 x2) x116)))))) (and (not (= (x30 (x30 x2 x81) x2) x81)) (and (not (= (x30 (x30 x2 x2) x2) x2)) (and (and (not (= (x30 (x30 x2 x32) x2) x32)) (not (= x141 (x30 (x30 x2 x141) x2)))) (not (= x116 (x30 (x30 x2 x116) x2)))))))))
(assert (not (and (and (= x32 (x30 x81 x116)) (and (= x141 (x30 x81 x2)) (= x2 (x30 x81 x32)))) (= x116 (x30 x81 x81)))))
(assert (not (and (= (x30 x32 x32) x116) (and (= x81 (x30 x32 x116)) (and (= (x30 x32 x141) x2) (= (x30 x32 x81) x141))))))
(assert (not (and (and (= x116 (x30 x141 x32)) (and (= (x30 x141 x116) x2) (= x81 (x30 x141 x2)))) (= x32 (x30 x141 x141)))))
(assert (not (and (= (x30 x81 x81) x141) (and (and (= x32 (x30 x81 x116)) (= x116 (x30 x81 x2))) (= x2 (x30 x81 x141))))))
(assert (not (and (= x2 (x30 x32 x32)) (and (= x116 (x30 x32 x2)) (and (= x141 (x30 x32 x81)) (= (x30 x32 x116) x81))))))
(assert (not (and (and (and (= (x30 x32 x141) x81) (= (x30 x32 x81) x2)) (= (x30 x32 x116) x141)) (= x116 (x30 x32 x32)))))
(assert (not (and (and (= (x30 x81 x141) x32) (and (= (x30 x81 x2) x116) (= (x30 x81 x32) x2))) (= (x30 x81 x81) x141))))
(assert (not (and (and (= (x30 x2 x32) x81) (and (= x141 (x30 x2 x116)) (= x116 (x30 x2 x81)))) (= x32 (x30 x2 x2)))))
(assert (not (and (and (and (= x116 (x30 x32 x81)) (= (x30 x32 x2) x81)) (= (x30 x32 x141) x2)) (= x141 (x30 x32 x32)))))
(assert (not (and (= (x30 x116 x116) x81) (and (= (x30 x116 x81) x141) (and (= x32 (x30 x116 x2)) (= x2 (x30 x116 x141)))))))
(assert (not (and (and (and (= x116 (x30 x2 x32)) (= x32 (x30 x2 x141))) (= (x30 x2 x81) x141)) (= x81 (x30 x2 x2)))))
(assert (and (not (= (x30 x81 x81) x81)) (and (and (not (= (x30 x116 x116) x116)) (and (not (= (x30 x32 x32) x32)) (not (= x141 (x30 x141 x141))))) (not (= x2 (x30 x2 x2))))))
(assert (not (and (= (x30 x116 x116) x141) (and (and (= x81 (x30 x116 x32)) (= x32 (x30 x116 x2))) (= (x30 x116 x141) x2)))))
(assert (not (and (= (x30 x141 x141) x32) (and (= (x30 x141 x32) x2) (and (= (x30 x141 x81) x116) (= (x30 x141 x2) x81))))))
(assert (not (and (= (x30 x2 x2) x116) (and (= (x30 x2 x116) x32) (and (= (x30 x2 x32) x141) (= (x30 x2 x141) x81))))))
(assert (not (and (= x81 (x30 x141 x141)) (and (= x32 (x30 x141 x81)) (and (= (x30 x141 x32) x2) (= (x30 x141 x2) x116))))))
(assert (not (and (= x116 (x30 x81 x81)) (and (= (x30 x81 x116) x32) (and (= (x30 x81 x141) x2) (= x141 (x30 x81 x32)))))))
(assert (not (and (= x32 (x30 x116 x116)) (and (= (x30 x116 x32) x81) (and (= (x30 x116 x2) x141) (= x2 (x30 x116 x81)))))))
(assert (not (and (and (and (= (x30 x116 x2) x141) (= x81 (x30 x116 x141))) (= x2 (x30 x116 x32))) (= x32 (x30 x116 x116)))))
(assert (not (and (and (and (= (x30 x2 x32) x81) (= x32 (x30 x2 x116))) (= x116 (x30 x2 x141))) (= x141 (x30 x2 x2)))))
(assert (not (and (and (and (= (x30 x81 x32) x116) (= x141 (x30 x81 x116))) (= x32 (x30 x81 x2))) (= (x30 x81 x81) x2))))
(assert (not (and (and (= (x30 x81 x141) x116) (and (= x2 (x30 x81 x32)) (= x32 (x30 x81 x116)))) (= x141 (x30 x81 x81)))))
(assert (not (and (= (x30 x32 x32) x141) (and (= (x30 x32 x141) x116) (and (= x2 (x30 x32 x81)) (= (x30 x32 x116) x81))))))
(assert (not (and (and (and (= x81 (x30 x141 x32)) (= x2 (x30 x141 x81))) (= x32 (x30 x141 x116))) (= (x30 x141 x141) x116))))
(assert (let ((x158 (x30 x81 x81)) (x131 (x30 x116 x116)) (x24 (x30 x32 x32)) (x58 (x30 x2 x2)) (x155 (x30 x141 x141))) (and (not (= x81 (x30 x158 x158))) (and (and (and (not (= x141 (x30 x155 x155))) (not (= (x30 x24 x24) x32))) (not (= x116 (x30 x131 x131)))) (not (= x2 (x30 x58 x58)))))))
(assert (not (and (= (x30 x2 x2) x81) (and (= x116 (x30 x2 x81)) (and (= (x30 x2 x32) x141) (= (x30 x2 x116) x32))))))
(assert (not (and (= x2 (x30 x81 x81)) (and (= x116 (x30 x81 x2)) (and (= (x30 x81 x116) x32) (= (x30 x81 x32) x141))))))
(assert (not (and (and (= (x30 x32 x2) x116) (and (= (x30 x32 x141) x81) (= (x30 x32 x116) x141))) (= (x30 x32 x32) x2))))
(assert (not (and (and (= x32 (x30 x116 x81)) (and (= x141 (x30 x116 x32)) (= (x30 x116 x141) x2))) (= x81 (x30 x116 x116)))))
(assert (not (and (= (x30 x116 x116) x2) (and (= (x30 x116 x2) x32) (and (= x141 (x30 x116 x32)) (= (x30 x116 x141) x81))))))
(assert (not (and (and (= x81 (x30 x116 x141)) (and (= x32 (x30 x116 x2)) (= x2 (x30 x116 x81)))) (= x141 (x30 x116 x116)))))
(assert (not (and (and (and (= x116 (x30 x81 x32)) (= x32 (x30 x81 x2))) (= (x30 x81 x141) x2)) (= (x30 x81 x81) x141))))
(assert (not (and (= (x30 x141 x141) x81) (and (and (= (x30 x141 x116) x32) (= (x30 x141 x32) x2)) (= (x30 x141 x81) x116)))))
(assert (let ((x71 (x30 x2 x32)) (x13 (x30 x116 x2)) (x22 (x30 x116 x116)) (x117 (x30 x81 x32)) (x155 (x30 x141 x141)) (x126 (x30 x81 x116)) (x12 (x30 x141 x2)) (x156 (x30 x32 x81)) (x25 (x30 x116 x32)) (x94 (x30 x81 x2)) (x124 (x30 x32 x32)) (x39 (x30 x81 x81)) (x24 (x30 x32 x141)) (x101 (x30 x141 x81)) (x52 (x30 x32 x116)) (x131 (x30 x116 x141)) (x154 (x30 x141 x116)) (x148 (x30 x141 x32)) (x158 (x30 x81 x141)) (x57 (x30 x2 x116)) (x58 (x30 x2 x141)) (x89 (x30 x2 x81)) (x118 (x30 x2 x2)) (x9 (x30 x32 x2)) (x86 (x30 x116 x81))) (and (and (and (and (and (and (and (and (and (not (= x25 x13)) (and (not (= x22 x25)) (and (and (not (= x131 x13)) (and (not (= x22 x131)) (not (= x131 x25)))) (not (= x86 x131))))) (not (= x25 x86))) (not (= x13 x22))) (not (= x86 x22))) (not (= x13 x86))) (and (and (and (and (not (= x154 x12)) (and (and (not (= x12 x148)) (and (and (and (not (= x12 x155)) (and (not (= x155 x148)) (not (= x155 x154)))) (not (= x101 x155))) (not (= x154 x148)))) (not (= x148 x101)))) (not (= x154 x101))) (not (= x12 x101))) (and (and (and (not (= x9 x52)) (and (not (= x124 x156)) (and (not (= x124 x9)) (and (not (= x52 x124)) (and (and (and (not (= x24 x52)) (not (= x124 x24))) (not (= x9 x24))) (not (= x24 x156))))))) (not (= x156 x52))) (not (= x9 x156))))) (and (and (and (and (and (and (and (and (not (= x58 x118)) (and (not (= x58 x57)) (not (= x58 x71)))) (not (= x58 x89))) (not (= x71 x57))) (not (= x118 x71))) (not (= x71 x89))) (not (= x118 x57))) (not (= x89 x57))) (not (= x89 x118)))) (and (and (not (= x39 x126)) (and (not (= x126 x94)) (and (and (not (= x94 x117)) (and (not (= x117 x126)) (and (not (= x158 x39)) (and (and (not (= x158 x126)) (not (= x117 x158))) (not (= x158 x94)))))) (not (= x39 x117))))) (not (= x94 x39)))) (and (and (and (and (and (not (= x117 x71)) (and (and (and (and (not (= x71 x124)) (and (and (and (not (= x148 x71)) (and (not (= x124 x148)) (not (= x148 x25)))) (not (= x117 x148))) (not (= x25 x124)))) (not (= x117 x124))) (not (= x25 x71))) (not (= x25 x117)))) (and (and (and (and (not (= x158 x24)) (and (and (not (= x24 x131)) (and (and (and (not (= x24 x155)) (not (= x131 x155))) (not (= x58 x155))) (not (= x158 x155)))) (not (= x58 x24)))) (not (= x131 x58))) (not (= x131 x158))) (not (= x58 x158)))) (and (not (= x57 x126)) (and (not (= x126 x22)) (and (not (= x22 x57)) (and (and (not (= x57 x52)) (and (and (not (= x126 x154)) (and (not (= x154 x57)) (and (not (= x154 x22)) (not (= x52 x154))))) (not (= x22 x52)))) (not (= x126 x52))))))) (and (not (= x118 x94)) (and (and (and (and (and (and (and (not (= x118 x12)) (and (not (= x12 x9)) (not (= x13 x12)))) (not (= x12 x94))) (not (= x9 x13))) (not (= x118 x9))) (not (= x9 x94))) (not (= x118 x13))) (not (= x13 x94))))) (and (not (= x89 x39)) (and (not (= x86 x39)) (and (not (= x89 x86)) (and (and (not (= x89 x156)) (and (and (not (= x39 x101)) (and (not (= x101 x89)) (and (not (= x101 x156)) (not (= x101 x86))))) (not (= x156 x86)))) (not (= x156 x39))))))))))
(assert (not (and (and (and (= x116 (x30 x141 x2)) (= (x30 x141 x116) x32)) (= (x30 x141 x81) x2)) (= x81 (x30 x141 x141)))))
(assert (not (and (and (= (x30 x2 x32) x141) (and (= x116 (x30 x2 x141)) (= x81 (x30 x2 x116)))) (= (x30 x2 x2) x32))))
(assert (not (and (= x81 (x30 x116 x116)) (and (and (= (x30 x116 x2) x32) (= (x30 x116 x32) x141)) (= x2 (x30 x116 x81))))))
(assert (not (and (and (and (= x2 (x30 x116 x81)) (= (x30 x116 x141) x81)) (= x141 (x30 x116 x32))) (= (x30 x116 x116) x32))))
(assert (not (and (= (x30 x32 x32) x2) (and (and (= x116 (x30 x32 x81)) (= (x30 x32 x141) x81)) (= x141 (x30 x32 x2))))))
(assert (not (and (= (x30 x2 x2) x141) (and (and (= x116 (x30 x2 x32)) (= (x30 x2 x116) x81)) (= x32 (x30 x2 x141))))))
(assert (not (and (= (x30 x81 x81) x141) (and (and (= x2 (x30 x81 x116)) (= x32 (x30 x81 x2))) (= (x30 x81 x141) x116)))))
(assert (not (and (and (= (x30 x2 x81) x32) (and (= x141 (x30 x2 x116)) (= x116 (x30 x2 x32)))) (= x81 (x30 x2 x2)))))
(assert (not (and (= x141 (x30 x2 x2)) (and (and (= x116 (x30 x2 x81)) (= x32 (x30 x2 x116))) (= x81 (x30 x2 x141))))))
(assert (not (and (and (= (x30 x116 x141) x32) (and (= (x30 x116 x2) x81) (= x2 (x30 x116 x32)))) (= x141 (x30 x116 x116)))))
(assert (not (and (and (= x81 (x30 x141 x32)) (and (= x2 (x30 x141 x81)) (= (x30 x141 x2) x116))) (= (x30 x141 x141) x32))))
(assert (not (and (= (x30 x32 x32) x81) (and (= x116 (x30 x32 x81)) (and (= (x30 x32 x2) x141) (= x2 (x30 x32 x116)))))))
(assert (not (and (and (and (= x141 (x30 x81 x32)) (= x116 (x30 x81 x141))) (= (x30 x81 x2) x32)) (= (x30 x81 x81) x2))))
(assert (not (and (= x141 (x30 x32 x32)) (and (and (= (x30 x32 x2) x116) (= (x30 x32 x81) x2)) (= (x30 x32 x141) x81)))))
(assert (not (and (= x141 (x30 x32 x32)) (and (= (x30 x32 x141) x2) (and (= (x30 x32 x2) x116) (= x81 (x30 x32 x116)))))))
(assert (let ((x156 (x30 x32 x81)) (x146 (x30 x81 x32)) (x109 (x30 x81 x2)) (x119 (x30 x81 x81)) (x158 (x30 x141 x2)) (x148 (x30 x141 x81)) (x64 (x30 x116 x116)) (x71 (x30 x116 x141)) (x131 (x30 x141 x32)) (x94 (x30 x32 x116)) (x24 (x30 x141 x141)) (x101 (x30 x32 x2)) (x58 (x30 x141 x116)) (x117 (x30 x2 x141)) (x6 (x30 x2 x2)) (x48 (x30 x2 x81)) (x76 (x30 x2 x116)) (x63 (x30 x81 x116)) (x132 (x30 x116 x81)) (x25 (x30 x32 x141)) (x154 (x30 x81 x141)) (x150 (x30 x2 x32)) (x118 (x30 x32 x32)) (x65 (x30 x116 x2)) (x39 (x30 x116 x32))) (let ((x114 (= x2 x118)) (x53 (= x81 x65)) (x79 (= x2 x64)) (x90 (= x81 x131)) (x12 (= x131 x141)) (x82 (= x154 x81)) (x145 (= x156 x116)) (x99 (= x141 x94)) (x75 (= x71 x116)) (x33 (= x150 x141)) (x104 (= x156 x2)) (x102 (= x32 x119)) (x77 (= x141 x48)) (x29 (= x132 x116)) (x103 (= x117 x32)) (x72 (= x2 x94)) (x73 (= x2 x65)) (x136 (= x2 x63)) (x50 (= x81 x6)) (x105 (= x116 x48)) (x113 (= x32 x6)) (x93 (= x32 x64)) (x138 (= x81 x101)) (x27 (= x2 x132)) (x142 (= x94 x32)) (x78 (= x65 x32)) (x140 (= x32 x109)) (x37 (= x32 x156)) (x67 (= x101 x116)) (x89 (= x118 x32)) (x139 (= x158 x141)) (x15 (= x132 x141)) (x1 (= x116 x118)) (x106 (= x101 x2)) (x35 (= x150 x2)) (x151 (= x148 x2)) (x134 (= x39 x81)) (x38 (= x141 x76)) (x91 (= x58 x141)) (x43 (= x32 x63)) (x80 (= x65 x141)) (x26 (= x48 x32)) (x155 (= x141 x24)) (x84 (= x146 x32)) (x3 (= x48 x81)) (x14 (= x148 x32)) (x4 (= x141 x119)) (x62 (= x141 x71)) (x74 (= x2 x39)) (x16 (= x146 x81)) (x107 (= x94 x81)) (x88 (= x32 x132)) (x21 (= x116 x58)) (x97 (= x64 x81)) (x51 (= x116 x76)) (x137 (= x6 x116)) (x100 (= x2 x6)) (x126 (= x25 x141)) (x47 (= x2 x158)) (x42 (= x65 x116)) (x9 (= x118 x141)) (x125 (= x63 x141)) (x128 (= x94 x116)) (x130 (= x154 x32)) (x121 (= x39 x141)) (x34 (= x131 x116)) (x54 (= x141 x6)) (x108 (= x150 x116)) (x52 (= x24 x116)) (x87 (= x156 x81)) (x19 (= x58 x81)) (x31 (= x2 x119)) (x22 (= x2 x24)) (x69 (= x158 x116)) (x5 (= x141 x154)) (x110 (= x117 x2)) (x60 (= x116 x146)) (x120 (= x109 x141)) (x86 (= x32 x131)) (x46 (= x141 x101)) (x133 (= x150 x32)) (x66 (= x2 x76)) (x44 (= x116 x25)) (x28 (= x116 x117)) (x11 (= x146 x2)) (x85 (= x76 x81)) (x57 (= x81 x24)) (x55 (= x141 x146)) (x56 (= x81 x117)) (x127 (= x109 x116)) (x157 (= x81 x132)) (x83 (= x2 x154)) (x17 (= x32 x39)) (x45 (= x116 x148)) (x123 (= x71 x32)) (x40 (= x64 x141)) (x61 (= x148 x81)) (x10 (= x58 x32)) (x111 (= x71 x2)) (x124 (= x32 x24)) (x129 (= x156 x141)) (x59 (= x58 x2)) (x8 (= x81 x25)) (x70 (= x141 x148)) (x98 (= x64 x116)) (x23 (= x81 x150)) (x36 (= x32 x76)) (x18 (= x158 x32)) (x115 (= x109 x2)) (x144 (= x81 x119)) (x135 (= x81 x109)) (x41 (= x119 x116)) (x49 (= x2 x25)) (x20 (= x116 x154)) (x122 (= x116 x63)) (x112 (= x2 x48)) (x13 (= x32 x25)) (x7 (= x39 x116)) (x149 (= x118 x81)) (x153 (= x81 x63)) (x92 (= x71 x81)) (x95 (= x141 x117)) (x152 (= x158 x81)) (x147 (= x101 x32)) (x68 (= x131 x2))) (and (and (and (and (and (and (and (or (or (or x111 (or x49 x22)) x110) x83) (or (or (or x59 (or x68 x22)) x47) x151)) (and (and (or (or x69 (or (or x34 x52) x21)) x45) (or (or x28 (or (or x52 x44) x75)) x20)) (and (and (or x14 (or x18 (or (or x124 x86) x10))) (or (or (or (or x124 x13) x123) x103) x130)) (and (or (or x95 (or x62 (or x126 x155))) x5) (or (or x139 (or (or x12 x155) x91)) x70))))) (and (or (or (or x19 (or x57 x90)) x152) x61) (or (or x56 (or (or x8 x57) x92)) x82))) (and (and (or (or x138 (or x107 (or x149 x8))) x87) (or (or (or (or x90 x149) x134) x23) x16)) (and (and (and (or (or x108 (or (or x1 x34) x7)) x60) (or (or (or (or x1 x44) x128) x67) x145)) (and (and (or (or (or x121 (or x12 x9)) x33) x55) (or (or (or x99 (or x126 x9)) x46) x129)) (and (or x37 (or x147 (or x142 (or x89 x13)))) (or x84 (or (or x17 (or x89 x86)) x133))))) (and (or x104 (or x106 (or (or x49 x114) x72))) (or x11 (or (or (or x114 x68) x74) x35)))))) (and (and (or (or (or x97 (or x107 x19)) x85) x153) (or (or x53 (or (or x134 x92) x97)) x157)) (and (and (and (and (or (or x36 (or (or x10 x142) x93)) x43) (or (or (or x93 (or x123 x17)) x78) x88)) (and (or x125 (or (or (or x91 x99) x40) x38)) (or (or (or (or x121 x62) x40) x80) x15))) (and (or x29 (or (or (or x7 x75) x98) x42)) (or (or x51 (or (or x21 x128) x98)) x122))) (and (or (or (or (or x59 x72) x79) x66) x136) (or (or (or x79 (or x111 x74)) x73) x27))))) (and (and (or (or (or x85 (or x23 x56)) x50) x3) (or x135 (or x50 (or (or x152 x138) x53)))) (and (and (and (or x105 (or x137 (or x51 (or x108 x28)))) (or (or (or x42 (or x69 x67)) x137) x127)) (and (and (or x26 (or x113 (or (or x103 x133) x36))) (or (or x113 (or x78 (or x147 x18))) x140)) (and (or x77 (or x54 (or x38 (or x95 x33)))) (or x120 (or (or x80 (or x139 x46)) x54))))) (and (or (or (or x66 (or x35 x110)) x100) x112) (or x115 (or x100 (or x73 (or x47 x106)))))))) (and (and (or x144 (or (or (or x87 x61) x157) x3)) (or x144 (or x135 (or (or x82 x16) x153)))) (and (and (or (or (or (or x83 x11) x136) x115) x31) (or x31 (or x112 (or (or x151 x104) x27)))) (and (and (or x41 (or (or (or x145 x45) x29) x105)) (or (or (or (or x60 x20) x122) x127) x41)) (and (and (or x4 (or (or (or x70 x129) x15) x77)) (or x4 (or (or x125 (or x55 x5)) x120))) (and (or (or (or (or x37 x14) x88) x26) x102) (or (or x140 (or x43 (or x130 x84))) x102))))))))))
(assert (not (and (and (and (= (x30 x32 x116) x141) (= (x30 x32 x141) x2)) (= (x30 x32 x81) x116)) (= x81 (x30 x32 x32)))))
(assert (not (and (= x116 (x30 x141 x141)) (and (and (= x32 (x30 x141 x81)) (= (x30 x141 x32) x2)) (= (x30 x141 x116) x81)))))
(assert (let ((x71 (not (= x116 (x30 x116 x116)))) (x156 (x30 x116 x81)) (x25 (x30 x32 x116)) (x94 (x30 x32 x81)) (x24 (x30 x32 x141)) (x155 (not (= x141 (x30 x141 x141)))) (x117 (x30 x2 x141)) (x158 (x30 x116 x141)) (x126 (x30 x116 x2)) (x86 (x30 x81 x2)) (x154 (x30 x141 x2)) (x131 (x30 x141 x32)) (x118 (x30 x81 x32)) (x52 (x30 x2 x32)) (x12 (not (= x2 (x30 x2 x2)))) (x22 (x30 x32 x2)) (x39 (not (= x81 (x30 x81 x81)))) (x57 (x30 x2 x116)) (x148 (x30 x141 x116)) (x9 (x30 x81 x141)) (x58 (not (= (x30 x32 x32) x32))) (x124 (x30 x116 x32)) (x101 (x30 x81 x116)) (x89 (x30 x2 x81)) (x13 (x30 x141 x81))) (and (and (and (and (and (and (and (and (or x58 x58) (or (not (= x24 x32)) (not (= x131 x32)))) (or (not (= x25 x32)) (not (= x32 x124)))) (or (not (= x52 x32)) (not (= x32 x22)))) (or (not (= x32 x118)) (not (= x32 x94)))) (and (or (not (= x13 x141)) (not (= x141 x9))) (and (or (not (= x154 x141)) (not (= x141 x117))) (and (or (not (= x158 x141)) (not (= x141 x148))) (and (or (not (= x131 x141)) (not (= x24 x141))) (or x155 x155)))))) (and (or (not (= x156 x116)) (not (= x116 x101))) (and (or (not (= x116 x57)) (not (= x116 x126))) (and (and (or (not (= x116 x148)) (not (= x158 x116))) (or (not (= x25 x116)) (not (= x116 x124)))) (or x71 x71))))) (and (and (and (or (not (= x57 x2)) (not (= x126 x2))) (and (or (not (= x2 x52)) (not (= x2 x22))) (or (not (= x117 x2)) (not (= x2 x154))))) (or x12 x12)) (or (not (= x2 x86)) (not (= x2 x89))))) (and (or x39 x39) (and (or (not (= x81 x89)) (not (= x86 x81))) (and (and (or (not (= x94 x81)) (not (= x118 x81))) (or (not (= x81 x9)) (not (= x13 x81)))) (or (not (= x81 x101)) (not (= x81 x156)))))))))
(assert (not (and (and (= (x30 x116 x2) x141) (and (= (x30 x116 x32) x81) (= (x30 x116 x141) x32))) (= (x30 x116 x116) x2))))
(assert (not (and (and (and (= x141 (x30 x32 x2)) (= (x30 x32 x141) x116)) (= x2 (x30 x32 x81))) (= x81 (x30 x32 x32)))))
(check-sat)
(exit)
